NAME : single
TYPE : ATSP
DIMENSION : 22
EDGE_WEIGHT_TYPE : EXPLICIT
EDGE_WEIGHT_FORMAT : FULL_MATRIX
EDGE_WEIGHT_SECTION
0 1144 771 750 1084 1027 1003 947 852 1269 1122 1341 1337 1476 1761 1824 1847 101 187 195 229 554 
0 0 458 457 163 121 160 200 284 201 162 202 206 340 656 725 748 831 900 910 811 561 
0 458 0 152 411 338 326 274 171 582 446 676 551 788 1164 1231 1253 511 565 573 492 241 
0 457 152 0 394 305 309 254 148 570 430 674 549 784 1058 1126 1149 484 540 549 435 209 
0 163 411 394 0 151 91 152 250 184 41 302 306 391 681 747 770 749 820 830 742 497 
0 121 338 305 151 0 90 96 174 285 175 313 262 464 757 824 848 720 789 799 700 450 
0 160 326 309 91 90 0 60 163 266 127 336 313 438 758 824 847 681 752 762 669 420 
0 200 274 254 152 96 60 0 107 325 188 386 390 490 814 880 903 633 703 713 618 368 
0 284 171 148 250 174 163 107 0 428 287 482 447 585 918 985 1008 553 620 630 528 278 
0 201 582 570 184 285 266 325 428 0 146 148 296 218 497 563 587 927 999 1009 925 680 
0 162 446 430 41 175 127 188 287 146 0 277 291 356 644 710 733 786 857 867 780 535 
0 202 676 674 302 313 336 386 482 148 277 0 273 105 460 529 552 1017 1088 1098 1004 754 
0 206 551 549 306 262 313 390 447 296 291 273 0 254 646 690 712 1030 1086 1098 973 729 
0 340 788 784 391 464 438 490 585 218 356 105 254 0 376 445 467 1119 1236 1246 1181 857 
0 656 1164 1058 681 757 758 814 918 497 644 460 646 376 0 69 92 1410 1484 1494 1416 1173 
0 725 1231 1126 747 824 824 880 985 563 710 529 690 445 69 0 23 1471 1545 1556 1479 1237 
0 748 1253 1149 770 848 847 903 1008 587 733 552 712 467 92 23 0 1494 1568 1578 1502 1260 
0 831 511 484 749 720 681 633 553 927 786 1017 1030 1119 1410 1471 1494 0 137 252 272 280 
0 900 565 540 820 789 752 703 620 999 857 1088 1086 1236 1484 1545 1568 137 0 114 189 343 
0 910 573 549 830 799 762 713 630 1009 867 1098 1098 1246 1494 1556 1578 252 114 0 120 352 
0 811 492 435 742 700 669 618 528 925 780 1004 973 1181 1416 1479 1502 272 189 120 0 250 
0 561 241 209 497 450 420 368 278 680 535 754 729 857 1173 1237 1260 280 343 352 250 0 
EOF